============================[ Problem Statistics ]=============================|                                                                             ||  Number of variables:          4242                                         ||  Number of clauses:           10111                                         ||  Parse time:                   0.50 s                                       ||                                                                             |============================[ Search Statistics ]==============================| Conflicts |          ORIGINAL         |          LEARNT          | Progress ||           |    Vars  Clauses Literals |    Limit  Clauses Lit/Cl |          |===============================================================================|       100 |    1591     6316   796157 |     2315      100     53 | 62.501 % ||       250 |    1591     6316   796157 |     2547      250     75 | 62.495 % |===============================================================================restarts              : 3conflicts             : 280            (373 /sec)decisions             : 545            (0.00 % random) (727 /sec)propagations          : 11812          (15749 /sec)conflict literals     : 21753          (94.80 % deleted)CPU time              : 0.75 sSATISFIABLE